
Gurobi 9.1.1 (win64) logging started Sun Mar 13 20:34:05 2022

Changed value of parameter LogFile to ./Log/Pattern_Appro_solver_1200_order_60_batch.log
   Prev:   Default: 
Gurobi Optimizer version 9.1.1 build v9.1.1rc0 (win64)
Thread count: 6 physical cores, 12 logical processors, using up to 12 threads
Optimize a model with 3338 rows, 26760 columns and 105480 nonzeros
Model fingerprint: 0x5c317b0e
Variable types: 0 continuous, 26760 integer (21000 binary)
Coefficient statistics:
  Matrix range     [1e+00, 2e+01]
  Objective range  [1e+00, 4e+01]
  Bounds range     [1e+00, 5e+01]
  RHS range        [1e+00, 5e+01]
Found heuristic solution: objective 10326.000000
Presolve removed 232 rows and 1336 columns
Presolve time: 0.12s
Presolved: 3106 rows, 25424 columns, 98082 nonzeros
Variable types: 0 continuous, 25424 integer (20059 binary)

Root relaxation: objective 1.749670e+03, 13765 iterations, 0.44 seconds

    Nodes    |    Current Node    |     Objective Bounds      |     Work
 Expl Unexpl |  Obj  Depth IntInf | Incumbent    BestBd   Gap | It/Node Time

     0     0 1749.67046    0  428 10326.0000 1749.67046  83.1%     -    0s
H    0     0                    6430.0000000 1749.67046  72.8%     -    0s
H    0     0                    6289.0000000 1749.67046  72.2%     -    0s
H    0     0                    6017.0000000 1749.67046  70.9%     -    1s
H    0     0                    6007.0000000 1749.67046  70.9%     -    1s
H    0     0                    5867.0000000 1749.67046  70.2%     -    2s
H    0     0                    5731.0000000 1749.67046  69.5%     -    2s
     0     0 1793.09800    0  677 5731.00000 1793.09800  68.7%     -    2s
H    0     0                    5207.0000000 1793.09800  65.6%     -    2s
H    0     0                    5135.0000000 1793.09800  65.1%     -    2s
     0     0 1796.67716    0  713 5135.00000 1796.67716  65.0%     -    2s
     0     0 1796.70457    0  708 5135.00000 1796.70457  65.0%     -    2s
     0     0 1796.70457    0  713 5135.00000 1796.70457  65.0%     -    3s
     0     0 1834.47177    0  924 5135.00000 1834.47177  64.3%     -    4s
H    0     0                    4880.0000000 1834.47177  62.4%     -    5s
     0     0 1842.33612    0  973 4880.00000 1842.33612  62.2%     -    5s
     0     0 1845.40268    0 1023 4880.00000 1845.40268  62.2%     -    5s
     0     0 1845.49039    0 1042 4880.00000 1845.49039  62.2%     -    5s
     0     0 1846.75444    0 1028 4880.00000 1846.75444  62.2%     -    6s
     0     0 1847.01573    0 1021 4880.00000 1847.01573  62.2%     -    6s
     0     0 1847.36876    0 1031 4880.00000 1847.36876  62.1%     -    6s
     0     0 1847.36916    0 1031 4880.00000 1847.36916  62.1%     -    6s
H    0     0                    4645.0000000 1847.36916  60.2%     -    6s
H    0     0                    4555.0000000 1847.36916  59.4%     -    6s
H    0     0                    4474.0000000 1847.36916  58.7%     -    8s
     0     0 1875.77836    0 1270 4474.00000 1875.77836  58.1%     -    8s
H    0     0                    4452.0000000 1875.77836  57.9%     -    9s
     0     0 1883.97240    0 1378 4452.00000 1883.97240  57.7%     -   10s
     0     0 1885.92307    0 1339 4452.00000 1885.92307  57.6%     -   11s
     0     0 1886.55853    0 1366 4452.00000 1886.55853  57.6%     -   11s
     0     0 1887.05879    0 1399 4452.00000 1887.05879  57.6%     -   11s
     0     0 1887.08140    0 1409 4452.00000 1887.08140  57.6%     -   12s
H    0     0                    4450.0000000 1887.08140  57.6%     -   15s
H    0     0                    4447.0000000 1887.08140  57.6%     -   15s
     0     0 1908.63661    0 1569 4447.00000 1908.63661  57.1%     -   15s
H    0     0                    4439.0000000 1908.63661  57.0%     -   17s
H    0     0                    4425.0000000 1908.63661  56.9%     -   17s
     0     0 1914.11606    0 1691 4425.00000 1914.11606  56.7%     -   17s
     0     0 1915.54322    0 1728 4425.00000 1915.54322  56.7%     -   19s
     0     0 1915.73656    0 1770 4425.00000 1915.73656  56.7%     -   20s
     0     0 1916.01403    0 1797 4425.00000 1916.01403  56.7%     -   21s
H    0     0                    4372.0000000 1916.01403  56.2%     -   21s
     0     0 1916.04038    0 1823 4372.00000 1916.04038  56.2%     -   21s
     0     0 1931.01030    0 2064 4372.00000 1931.01030  55.8%     -   26s
H    0     0                    4316.0000000 1931.01030  55.3%     -   27s
     0     0 1933.71612    0 2084 4316.00000 1933.71612  55.2%     -   30s
     0     0 1934.12575    0 2217 4316.00000 1934.12575  55.2%     -   33s
H    0     0                    4305.0000000 1934.12575  55.1%     -   34s
     0     0 1934.64813    0 2140 4305.00000 1934.64813  55.1%     -   35s
     0     0 1935.08732    0 2108 4305.00000 1935.08732  55.1%     -   36s
     0     0 1935.31657    0 2189 4305.00000 1935.31657  55.0%     -   37s
     0     0 1935.33413    0 2189 4305.00000 1935.33413  55.0%     -   38s
H    0     0                    4302.0000000 1935.33413  55.0%     -   45s
H    0     0                    4276.0000000 1935.33413  54.7%     -   45s
     0     0 1942.61733    0 2407 4276.00000 1942.61733  54.6%     -   45s
     0     0 1944.33433    0 2554 4276.00000 1944.33433  54.5%     -   50s
     0     0 1945.04983    0 2693 4276.00000 1945.04983  54.5%     -   53s
     0     0 1945.26824    0 2765 4276.00000 1945.26824  54.5%     -   56s
H    0     0                    4267.0000000 1945.26824  54.4%     -   57s
     0     0          -    0      4267.00000 1945.26824  54.4%     -   60s

Cutting planes:
  Gomory: 70
  Cover: 2367
  Implied bound: 463
  Clique: 608
  MIR: 109
  StrongCG: 29
  Flow cover: 234
  GUB cover: 11
  Zero half: 156
  Relax-and-lift: 16

Explored 1 nodes (84945 simplex iterations) in 60.02 seconds
Thread count was 12 (of 12 available processors)

Solution count 10: 4267 4276 4302 ... 4450

Time limit reached
Best objective 4.267000000000e+03, best bound 1.946000000000e+03, gap 54.3942%
